db/inputs/285551517527312284051402730733120864404.smt2
(set-logic QF_FP)
(declare-const x0 (_ FloatingPoint 8 24))
(declare-const x1 (_ FloatingPoint 8 24))
(declare-const x2 (_ FloatingPoint 8 24))
(declare-const x3 (_ FloatingPoint 8 24))
(declare-const x4 (_ FloatingPoint 8 24))
(declare-const x5 (_ FloatingPoint 8 24))
(declare-const x6 (_ FloatingPoint 8 24))
(declare-const x7 (_ FloatingPoint 8 24))
(declare-const x8 (_ FloatingPoint 8 24))
(declare-const x9 (_ FloatingPoint 8 24))
(declare-const x10 (_ FloatingPoint 8 24))
(declare-const x11 (_ FloatingPoint 8 24))
(declare-const x12 (_ FloatingPoint 8 24))
(assert (fp.geq (fp.sub RNE (fp.mul RNE (fp.add RNE (fp.mul RNE x10 x8) (fp.add RNE x2 x3)) (fp.neg (fp.sub RNE x12 x10))) (fp.add RNE (fp.add RNE (fp.mul RNE x4 x4) (fp.neg x9)) (fp.mul RNE (fp.div RNE x12 x5) (fp.div RNE x10 x6)))) (fp.sub RNE (fp.neg (fp.mul RNE (fp.add RNE x9 x6) (fp.neg x5))) (fp.mul RNE (fp.div RNE (fp.mul RNE x12 x3) (fp.mul RNE x1 x11)) (fp.div RNE (fp.neg x6) (fp.div RNE x0 x11))))))
(check-sat)
