db/data/285551517527312284051402730733120864404.z3.out
sat
-------------------
337.077617421
